33D32945 STP File, STP Format Version 1.0

SECTION Comment
Name "lin05-5s"
Creator "Bernd Zey"
Problem "Stochastic Steiner Tree Problem"
# Stochastic Steiner tree problem instance, base file: lin05.stp
# weight-scaling off
# parameters:
# distribution=equal
# selectRootRandomly=0
# probabilityTerminal=33
# probabilityNonTerminal=5
# 2nd stage edge-costs in [1.1000c_e, 1.3000c_e]
END

SECTION Graph
Nodes 160
Edges 269
Scenarios 5
Root 101
E 1 33 122
E 1 46 146
E 2 70 64
E 2 94 50
E 2 22 10
E 3 129 118
E 3 114 62
E 3 51 28
E 4 123 62
E 4 66 32
E 4 20 74
E 4 31 40
E 5 51 62
E 5 114 28
E 5 110 74
E 5 96 26
E 6 133 28
E 6 17 40
E 6 122 90
E 6 57 12
E 7 14 146
E 7 49 46
E 7 112 102
E 8 29 132
E 8 36 28
E 8 40 28
E 8 68 70
E 9 144 74
E 9 10 2
E 9 124 118
E 10 31 74
E 10 20 40
E 11 151 158
E 11 26 36
E 11 131 32
E 12 97 32
E 12 13 46
E 12 126 16
E 13 48 32
E 13 18 132
E 13 72 16
E 14 92 28
E 14 121 29
E 15 25 130
E 15 138 64
E 15 77 8
E 16 90 2
E 16 58 8
E 16 146 26
E 17 68 28
E 17 40 70
E 17 115 90
E 18 136 32
E 18 34 28
E 18 37 16
E 19 84 46
E 19 88 84
E 19 30 132
E 19 134 112
E 20 27 32
E 21 78 28
E 21 65 24
E 21 158 158
E 21 54 6
E 22 25 64
E 22 138 130
E 23 26 122
E 23 147 54
E 23 50 32
E 24 140 2
E 24 35 42
E 24 148 8
E 25 159 54
E 25 70 10
E 26 87 32
E 27 66 74
E 28 94 16
E 28 89 44
E 28 153 140
E 29 121 17
E 29 134 28
E 29 118 70
E 30 47 84
E 30 100 28
E 30 36 112
E 31 61 62
E 31 144 2
E 32 41 6
E 32 90 26
E 32 146 2
E 32 103 76
E 33 38 14
E 33 55 76
E 34 151 32
E 34 131 158
E 34 65 16
E 35 94 140
E 35 153 16
E 35 111 8
E 36 134 132
E 36 116 28
E 37 72 132
E 37 65 28
E 37 78 24
E 38 79 98
E 38 125 76
E 39 54 158
E 39 158 6
E 39 120 36
E 39 145 84
E 40 116 28
E 40 107 90
E 41 63 64
E 41 154 26
E 41 104 76
E 42 147 12
E 42 152 20
E 43 51 26
E 43 96 62
E 43 142 66
E 44 128 27
E 44 55 7
E 45 139 98
E 45 156 28
E 45 128 14
E 45 125 34
E 46 127 122
E 46 105 158
E 47 88 132
E 47 78 6
E 47 54 28
E 48 97 46
E 48 136 132
E 49 85 44
E 49 102 132
E 49 99 102
E 50 87 122
E 50 152 54
E 50 149 16
E 51 101 70
E 52 99 132
E 52 102 102
E 52 160 164
E 53 122 46
E 53 77 76
E 53 60 12
E 54 100 84
E 55 125 14
E 56 126 24
E 56 83 46
E 56 117 6
E 57 62 28
E 57 95 90
E 58 143 2
E 58 148 28
E 58 141 42
E 59 67 64
E 59 64 28
E 59 143 6
E 59 154 8
E 60 95 46
E 60 71 9
E 61 150 114
E 61 123 40
E 61 129 2
E 62 133 12
E 62 102 24
E 63 137 26
E 63 130 76
E 64 77 64
E 64 138 8
E 64 86 6
E 65 106 158
E 66 147 132
E 67 74 72
E 67 77 28
E 67 137 8
E 68 118 132
E 68 133 40
E 69 153 98
E 69 142 92
E 69 127 14
E 69 156 8
E 70 81 186
E 71 75 7
E 72 126 46
E 72 83 24
E 73 155 18
E 73 119 104
E 73 81 6
E 74 75 4
E 74 93 8
E 75 80 8
E 76 116 90
E 76 159 68
E 76 107 28
E 78 83 132
E 79 103 60
E 79 135 76
E 80 102 164
E 80 93 4
E 80 160 102
E 81 120 18
E 82 132 146
E 82 89 16
E 82 94 44
E 83 88 6
E 84 117 84
E 84 92 112
E 85 118 32
E 86 140 8
E 86 148 2
E 86 143 28
E 87 131 36
E 87 108 16
E 88 117 46
E 89 101 28
E 90 154 6
E 90 143 8
E 91 156 14
E 91 127 8
E 91 128 28
E 92 134 46
E 93 137 72
E 93 157 102
E 95 122 12
E 96 105 74
E 98 145 69
E 98 159 43
E 99 112 46
E 100 145 158
E 100 116 112
E 103 104 6
E 104 130 64
E 105 110 26
E 106 131 16
E 106 108 36
E 106 158 24
E 107 115 70
E 108 149 122
E 108 155 24
E 109 111 16
E 109 153 8
E 109 156 98
E 109 139 28
E 110 113 13
E 111 148 42
E 111 141 28
E 113 124 15
E 114 144 118
E 114 124 74
E 115 122 40
E 119 149 24
E 119 150 10
E 120 155 6
E 123 152 70
E 125 135 98
E 129 132 114
E 129 144 62
E 130 157 72
E 132 150 2
E 135 146 58
E 135 139 34
E 136 151 28
E 137 154 64
E 138 140 6
E 139 141 16
E 155 158 36
E 157 160 4
END

SECTION StochasticProbabilities
SP 0.15910 0.13640 0.27280 0.11360 0.31810
END

SECTION StochasticWeights
SE 156 143 152 147 135 
SE 189 168 161 161 173 
SE 72 71 79 82 71 
SE 57 65 56 59 56 
SE 12 11 11 13 11 
SE 149 149 143 152 144 
SE 77 76 74 71 79 
SE 31 31 34 36 31 
SE 70 79 73 75 69 
SE 41 40 37 36 36 
SE 95 94 85 85 95 
SE 48 47 44 52 45 
SE 72 69 77 69 72 
SE 35 33 31 36 31 
SE 91 95 86 94 82 
SE 31 30 29 30 33 
SE 31 31 36 31 31 
SE 48 51 47 49 50 
SE 109 115 103 117 116 
SE 14 15 14 14 14 
SE 181 176 188 163 188 
SE 57 54 51 51 52 
SE 120 127 122 122 130 
SE 168 149 153 146 148 
SE 31 35 33 33 33 
SE 35 31 35 34 32 
SE 84 89 85 77 82 
SE 84 92 94 87 82 
SE 3 3 3 3 3 
SE 150 134 135 141 140 
SE 82 89 83 85 92 
SE 52 51 46 51 47 
SE 196 181 184 194 196 
SE 40 43 42 43 46 
SE 36 41 40 36 37 
SE 36 40 37 40 36 
SE 59 59 57 53 54 
SE 20 18 18 18 20 
SE 36 41 39 37 36 
SE 163 147 159 161 171 
SE 18 18 18 18 19 
SE 34 35 33 35 35 
SE 32 36 36 35 35 
SE 168 158 153 145 153 
SE 79 83 74 79 76 
SE 9 9 10 10 10 
SE 3 3 3 3 3 
SE 9 9 9 10 9 
SE 33 29 31 29 29 
SE 33 35 36 34 32 
SE 85 81 79 85 86 
SE 101 117 113 113 100 
SE 38 37 40 36 36 
SE 32 32 36 31 31 
SE 19 18 20 20 18 
SE 54 56 51 52 58 
SE 108 104 97 103 93 
SE 165 169 170 146 165 
SE 144 135 124 143 127 
SE 38 36 40 37 41 
SE 32 36 31 31 31 
SE 31 30 27 28 30 
SE 174 184 189 195 186 
SE 7 7 7 7 7 
SE 78 80 82 81 72 
SE 166 164 149 169 165 
SE 150 136 155 144 155 
SE 63 62 68 61 69 
SE 38 39 36 38 36 
SE 3 3 3 3 3 
SE 54 52 49 47 53 
SE 10 10 10 9 9 
SE 61 69 65 65 70 
SE 13 12 13 13 11 
SE 38 39 41 38 39 
SE 96 86 87 83 82 
SE 19 18 18 19 18 
SE 52 57 56 50 57 
SE 174 170 176 168 170 
SE 20 22 19 20 22 
SE 32 34 34 34 32 
SE 77 84 87 90 88 
SE 106 109 98 95 101 
SE 33 35 31 35 31 
SE 139 124 142 144 126 
SE 80 69 77 78 69 
SE 3 3 3 3 3 
SE 7 7 7 7 7 
SE 30 30 31 29 31 
SE 3 3 3 3 3 
SE 87 98 97 84 93 
SE 17 17 17 17 18 
SE 90 84 91 91 84 
SE 36 39 36 38 38 
SE 179 192 203 201 197 
SE 18 18 18 18 18 
SE 177 168 168 160 177 
SE 18 19 18 19 20 
SE 9 9 9 9 10 
SE 161 165 152 153 160 
SE 31 35 34 34 33 
SE 166 171 153 161 160 
SE 34 32 33 35 34 
SE 27 29 31 28 31 
SE 126 114 114 114 114 
SE 98 86 87 84 86 
SE 190 178 193 186 195 
SE 7 7 7 7 7 
SE 42 41 41 45 41 
SE 94 104 99 98 98 
SE 35 35 36 32 32 
SE 116 100 102 110 116 
SE 81 77 80 73 71 
SE 29 33 32 33 33 
SE 84 94 84 85 90 
SE 14 14 14 14 14 
SE 23 22 26 24 26 
SE 33 33 29 33 29 
SE 77 80 80 80 69 
SE 81 75 85 83 84 
SE 34 30 31 33 35 
SE 8 9 8 9 8 
SE 113 125 124 117 108 
SE 34 33 31 35 36 
SE 16 16 16 16 17 
SE 44 44 43 40 42 
SE 154 157 146 135 153 
SE 200 181 189 200 198 
SE 171 160 148 157 157 
SE 7 7 7 7 7 
SE 31 32 32 33 35 
SE 59 53 52 55 52 
SE 167 169 171 158 170 
SE 56 49 56 53 49 
SE 146 155 151 149 149 
SE 113 119 114 121 113 
SE 137 141 137 156 151 
SE 66 64 60 64 69 
SE 19 20 18 19 18 
SE 90 86 83 85 91 
SE 161 171 170 151 146 
SE 120 113 128 120 131 
SE 206 199 205 187 196 
SE 59 51 52 54 57 
SE 91 93 93 98 93 
SE 14 14 15 14 15 
SE 107 100 95 96 107 
SE 18 18 16 17 16 
SE 29 27 29 31 30 
SE 53 55 57 58 51 
SE 7 7 7 7 7 
SE 36 36 35 35 36 
SE 101 100 100 100 111 
SE 3 3 3 3 3 
SE 31 31 36 31 33 
SE 50 52 47 47 48 
SE 76 71 73 81 78 
SE 35 36 31 34 31 
SE 7 7 7 7 7 
SE 9 9 9 10 9 
SE 51 55 54 58 57 
SE 10 11 10 10 10 
SE 130 146 128 132 142 
SE 51 44 49 49 50 
SE 3 3 3 3 3 
SE 14 14 15 15 14 
SE 28 31 31 29 27 
SE 31 30 29 31 31 
SE 89 92 94 86 93 
SE 71 74 76 76 71 
SE 10 10 9 9 10 
SE 7 7 7 7 7 
SE 194 178 194 186 174 
SE 146 163 160 147 167 
SE 89 83 90 80 83 
SE 31 33 35 34 34 
SE 9 10 10 9 9 
SE 148 146 151 148 158 
SE 52 45 50 51 45 
SE 111 119 122 126 116 
SE 103 113 117 114 119 
SE 17 16 16 18 16 
SE 9 10 9 9 9 
SE 227 233 222 215 235 
SE 8 8 8 8 8 
SE 59 52 58 59 54 
SE 29 30 30 28 27 
SE 22 21 20 21 22 
SE 124 133 119 115 132 
SE 7 7 7 7 7 
SE 5 5 5 5 5 
SE 9 9 9 9 9 
SE 9 9 9 9 10 
SE 107 103 113 111 113 
SE 77 86 87 75 78 
SE 35 31 32 32 34 
SE 151 162 147 156 152 
SE 67 66 72 68 67 
SE 96 85 84 85 97 
SE 206 192 197 196 211 
SE 5 5 5 5 5 
SE 126 124 117 118 125 
SE 20 23 21 20 23 
SE 189 177 161 165 187 
SE 18 18 19 18 20 
SE 50 56 51 51 56 
SE 7 7 7 7 7 
SE 102 104 106 103 106 
SE 138 144 127 140 145 
SE 38 39 38 36 41 
SE 9 9 9 9 9 
SE 3 3 3 3 3 
SE 35 33 31 34 32 
SE 41 45 40 40 42 
SE 20 19 20 20 18 
SE 54 59 51 55 55 
SE 33 36 34 33 34 
SE 7 7 7 7 7 
SE 9 10 10 10 9 
SE 17 16 16 16 16 
SE 10 10 10 9 9 
SE 31 31 31 33 31 
SE 59 54 53 54 51 
SE 91 81 91 80 87 
SE 114 117 120 130 120 
SE 15 14 14 14 14 
SE 85 90 82 91 93 
SE 76 83 89 80 76 
SE 49 49 55 54 51 
SE 51 57 59 52 56 
SE 176 174 204 182 196 
SE 142 126 129 133 145 
SE 7 7 7 7 7 
SE 82 83 71 81 74 
SE 31 31 31 31 33 
SE 18 18 18 20 18 
SE 45 45 40 40 41 
SE 28 30 31 29 31 
SE 86 91 79 77 84 
SE 135 137 148 136 138 
SE 27 27 29 31 31 
SE 18 18 18 19 19 
SE 9 9 9 9 9 
SE 112 119 109 109 111 
SE 31 35 35 31 34 
SE 15 15 15 15 16 
SE 53 54 53 52 51 
SE 33 32 33 33 31 
SE 19 17 19 18 17 
SE 137 147 144 145 150 
SE 95 92 86 88 84 
SE 47 47 46 51 51 
SE 30 29 30 27 29 
SE 12 13 12 13 12 
SE 7 7 7 7 7 
SE 87 86 84 83 88 
SE 117 110 115 122 112 
SE 133 144 145 134 140 
SE 79 79 72 74 69 
SE 85 81 90 84 91 
SE 3 3 3 3 3 
SE 69 75 74 73 67 
SE 40 41 41 43 41 
SE 32 32 31 31 32 
SE 71 80 71 75 78 
SE 7 7 7 7 7 
SE 18 18 18 20 18 
SE 46 43 43 40 45 
SE 5 5 5 5 5 
END

SECTION StochasticTerminals
ST 1 0 0 0 0 0 
ST 2 0 0 0 0 0 
ST 3 0 0 0 0 0 
ST 4 0 0 0 0 0 
ST 5 0 0 0 0 0 
ST 6 0 0 0 0 0 
ST 7 0 0 0 0 0 
ST 8 0 0 0 1 0 
ST 9 0 0 0 0 0 
ST 10 0 0 0 0 0 
ST 11 0 0 0 0 0 
ST 12 0 0 0 0 0 
ST 13 0 0 0 0 0 
ST 14 0 0 0 0 0 
ST 15 0 0 0 0 0 
ST 16 0 0 0 0 0 
ST 17 0 0 0 0 0 
ST 18 0 0 0 0 1 
ST 19 0 0 0 0 0 
ST 20 0 0 0 1 0 
ST 21 0 0 0 0 0 
ST 22 0 1 0 0 0 
ST 23 0 0 1 0 0 
ST 24 0 0 0 0 0 
ST 25 0 0 0 0 0 
ST 26 0 0 0 0 0 
ST 27 0 1 0 1 0 
ST 28 0 0 0 0 0 
ST 29 0 0 0 1 0 
ST 30 0 0 0 0 0 
ST 31 0 0 0 0 0 
ST 32 0 0 0 0 0 
ST 33 0 1 0 0 0 
ST 34 0 0 0 0 0 
ST 35 0 0 0 0 0 
ST 36 0 1 0 0 0 
ST 37 0 0 1 0 0 
ST 38 0 0 0 0 0 
ST 39 0 0 0 0 0 
ST 40 0 0 0 0 1 
ST 41 0 1 0 0 0 
ST 42 1 0 1 0 1 
ST 43 0 0 0 0 0 
ST 44 0 1 0 0 0 
ST 45 0 1 0 0 0 
ST 46 0 0 0 0 1 
ST 47 0 0 0 0 0 
ST 48 0 0 0 0 1 
ST 49 0 0 0 0 0 
ST 50 0 0 0 0 0 
ST 51 0 0 0 0 0 
ST 52 0 0 0 0 0 
ST 53 0 0 0 0 0 
ST 54 0 0 0 0 0 
ST 55 0 0 0 0 0 
ST 56 0 1 0 0 0 
ST 57 0 0 0 0 0 
ST 58 0 0 0 0 0 
ST 59 0 0 0 0 0 
ST 60 0 0 0 0 0 
ST 61 0 0 0 0 0 
ST 62 0 0 0 0 0 
ST 63 0 0 0 0 0 
ST 64 0 0 0 0 0 
ST 65 0 0 0 0 0 
ST 66 0 0 0 0 0 
ST 67 0 0 0 0 0 
ST 68 0 0 0 0 0 
ST 69 0 0 0 0 0 
ST 70 0 1 0 0 0 
ST 71 1 0 0 0 0 
ST 72 0 0 0 0 0 
ST 73 1 0 0 0 0 
ST 74 0 0 0 0 0 
ST 75 0 1 0 0 0 
ST 76 0 0 0 0 0 
ST 77 0 0 0 0 0 
ST 78 0 0 0 0 0 
ST 79 0 0 0 0 0 
ST 80 0 0 0 0 0 
ST 81 0 0 0 0 0 
ST 82 0 0 0 0 0 
ST 83 0 0 0 0 0 
ST 84 0 0 0 0 0 
ST 85 0 0 1 0 0 
ST 86 0 0 0 0 0 
ST 87 0 0 0 0 1 
ST 88 0 0 0 1 0 
ST 89 0 0 0 0 0 
ST 90 0 0 0 0 0 
ST 91 0 0 0 0 0 
ST 92 1 0 0 0 0 
ST 93 0 0 0 0 0 
ST 94 0 0 0 0 0 
ST 95 0 0 0 0 0 
ST 96 0 1 0 0 0 
ST 97 0 0 0 0 0 
ST 98 0 0 0 0 0 
ST 99 0 0 0 0 0 
ST 100 0 0 0 0 0 
ST 101 1 1 1 1 1 
ST 102 0 0 0 0 0 
ST 103 0 0 0 0 1 
ST 104 0 0 0 0 0 
ST 105 0 0 0 0 0 
ST 106 0 0 0 0 0 
ST 107 0 0 0 0 0 
ST 108 0 0 0 0 0 
ST 109 0 0 0 0 0 
ST 110 0 0 0 0 0 
ST 111 0 0 0 0 0 
ST 112 0 0 0 0 0 
ST 113 1 0 1 0 1 
ST 114 0 0 0 0 0 
ST 115 0 0 0 0 0 
ST 116 0 0 1 1 0 
ST 117 0 0 0 0 0 
ST 118 0 0 0 0 0 
ST 119 0 0 0 0 0 
ST 120 0 0 1 0 0 
ST 121 1 1 1 0 0 
ST 122 0 0 0 0 0 
ST 123 0 0 0 0 0 
ST 124 1 0 0 0 0 
ST 125 0 0 0 0 0 
ST 126 0 0 0 0 0 
ST 127 0 0 1 0 0 
ST 128 1 0 0 0 0 
ST 129 0 0 0 0 0 
ST 130 0 0 0 0 0 
ST 131 0 0 0 0 0 
ST 132 0 0 0 0 0 
ST 133 0 0 0 0 0 
ST 134 0 1 0 0 0 
ST 135 0 0 0 0 0 
ST 136 0 0 0 0 0 
ST 137 0 0 0 0 0 
ST 138 0 0 0 0 0 
ST 139 0 0 0 0 0 
ST 140 0 0 0 0 0 
ST 141 1 0 0 0 0 
ST 142 0 0 1 0 0 
ST 143 0 0 0 0 0 
ST 144 0 0 0 0 0 
ST 145 0 1 0 0 0 
ST 146 0 0 0 0 0 
ST 147 1 0 0 0 0 
ST 148 0 0 0 0 0 
ST 149 0 0 0 0 0 
ST 150 0 0 0 0 1 
ST 151 0 0 0 0 0 
ST 152 0 0 0 0 0 
ST 153 0 0 0 1 0 
ST 154 0 0 0 0 0 
ST 155 0 0 0 0 0 
ST 156 0 0 0 0 0 
ST 157 1 0 0 0 1 
ST 158 0 0 0 1 0 
ST 159 0 0 0 0 0 
ST 160 0 0 0 1 0 
END


SECTION Coordinates
DD 1 0 0
DD 2 286 300
DD 3 358 136
DD 4 518 74
DD 5 330 74
DD 6 138 576
DD 7 102 782
DD 8 248 604
DD 9 476 0
DD 10 478 0
DD 11 550 418
DD 12 518 782
DD 13 518 736
DD 14 248 782
DD 15 146 364
DD 16 102 292
DD 17 178 576
DD 18 518 604
DD 19 388 736
DD 20 518 0
DD 21 478 576
DD 22 276 300
DD 23 550 260
DD 24 146 292
DD 25 276 364
DD 26 550 382
DD 27 550 0
DD 28 286 234
DD 29 248 736
DD 30 388 604
DD 31 478 74
DD 32 76 294
DD 33 0 122
DD 34 518 576
DD 35 146 250
DD 36 276 604
DD 37 502 604
DD 38 0 136
DD 39 472 418
DD 40 248 576
DD 41 76 300
DD 42 538 206
DD 43 304 136
DD 44 83 122
DD 45 110 136
DD 46 146 0
DD 47 472 604
DD 48 550 736
DD 49 102 736
DD 50 518 260
DD 51 330 136
DD 52 0 604
DD 53 138 440
DD 54 472 576
DD 55 76 122
DD 56 478 782
DD 57 126 576
DD 58 110 292
DD 59 110 300
DD 60 126 440
DD 61 478 136
DD 62 126 604
DD 63 76 364
DD 64 138 300
DD 65 502 576
DD 66 550 74
DD 67 110 364
DD 68 178 604
DD 69 146 136
DD 70 286 364
DD 71 117 440
DD 72 502 736
DD 73 478 364
DD 74 110 436
DD 75 110 440
DD 76 276 486
DD 77 138 364
DD 78 478 604
DD 79 0 234
DD 80 102 440
DD 81 472 364
DD 82 330 250
DD 83 478 736
DD 84 388 782
DD 85 146 736
DD 86 138 294
DD 87 518 382
DD 88 472 736
DD 89 330 234
DD 90 102 294
DD 91 138 122
DD 92 276 782
DD 93 102 436
DD 94 286 250
DD 95 126 486
DD 96 304 74
DD 97 550 782
DD 98 319 418
DD 99 0 736
DD 100 388 576
DD 101 330 206
DD 102 102 604
DD 103 0 294
DD 104 0 300
DD 105 304 0
DD 106 502 418
DD 107 248 486
DD 108 502 382
DD 109 138 234
DD 110 330 0
DD 111 138 250
DD 112 0 782
DD 113 343 0
DD 114 358 74
DD 115 178 486
DD 116 276 576
DD 117 472 782
DD 118 178 736
DD 119 478 260
DD 120 472 382
DD 121 248 753
DD 122 138 486
DD 123 518 136
DD 124 358 0
DD 125 76 136
DD 126 502 782
DD 127 146 122
DD 128 110 122
DD 129 476 136
DD 130 0 364
DD 131 518 418
DD 132 476 250
DD 133 138 604
DD 134 276 736
DD 135 76 234
DD 136 550 604
DD 137 102 364
DD 138 146 300
DD 139 110 234
DD 140 146 294
DD 141 110 250
DD 142 238 136
DD 143 110 294
DD 144 476 74
DD 145 388 418
DD 146 76 292
DD 147 550 206
DD 148 138 292
DD 149 502 260
DD 150 478 250
DD 151 550 576
DD 152 518 206
DD 153 146 234
DD 154 102 300
DD 155 478 382
DD 156 138 136
DD 157 0 436
DD 158 478 418
DD 159 276 418
DD 160 0 440
END

EOF
